Maximize
  - 1.6247429100264 edge_0_1_0_0 - 1.3751279413294 edge_0_3_0_0
   - 2.424893907768 edge_0_4_0_0 - 2.2018431589828 edge_0_6_0_0
   - 0.6487446284552 edge_0_7_0_0 - 0.25712 edge_0_8_0_0
   - 2.2448092312126 edge_0_11_0_0 - 1.2233574321192 edge_0_12_0_0
   - 0.2237571204535141 edge_1_3_0_0 - 0.0510143289080531 edge_1_4_0_0
   - 0.0500974426267468 edge_1_7_0_0 - 0.5297740086395438 edge_1_8_0_0
   + 0.8453554030510667 edge_2_3_0_0 + 0.5828642147625342 edge_2_4_0_0
   + 0.4026265347638542 edge_2_5_0_0 + 0.5967098675694884 edge_3_1_0_0
   + 3.492480184049671 edge_3_2_0_0 + 1.92913100358047 edge_3_4_0_0
   + 0.8050390917979142 edge_3_5_0_0 + 0.3224735024186045 edge_3_6_0_0
   + 0.1256047645241266 edge_3_7_0_0 + 0.51083819928578 edge_3_8_0_0
   - 0.1150254433683024 edge_3_9_0_0 - 0.3436910754346009 edge_3_10_0_0
   + 0.3809809296174446 edge_3_11_0_0 + 0.0723755603161562 edge_3_12_0_0
   - 0.6010210965246909 edge_3_13_0_0 + 0.340906575152869 edge_3_14_0_0
   + 1.690794282653964 edge_3_15_0_0 - 0.4912156769167945 edge_4_1_0_0
   - 1.076437464887608 edge_4_2_0_0 - 0.1625807786320611 edge_4_3_0_0
   - 0.2097763326441498 edge_4_7_0_0 - 0.5457806408162987 edge_4_8_0_0
   - 0.717378002114769 edge_4_11_0_0 - 0.2173661066993075 edge_4_12_0_0
   - 0.0178721290465046 edge_5_6_0_0 - 0.4541499611208663 edge_5_7_0_0
   - 0.5253035382143999 edge_5_8_0_0 - 0.4465616863790673 edge_6_1_0_0
   + 0.0203002256089154 edge_6_3_0_0 + 0.00105886680223858 edge_6_4_0_0
   - 0.2706692436982425 edge_6_5_0_0 + 0.0560564645171929 edge_6_7_0_0
   + 0.6041028077845184 edge_6_8_0_0 - 0.3820794587845999 edge_6_10_0_0
   - 0.4360003971534369 edge_6_11_0_0 - 0.0385937425681005 edge_6_12_0_0
   - 0.1415959949266298 edge_6_14_0_0 + 0.1978451446291804 edge_6_15_0_0
   + 0.0318814748964527 edge_7_1_0_0 - 0.3180694962089683 edge_7_3_0_0
   - 0.1296309607076035 edge_7_4_0_0 - 0.0881921112701703 edge_7_5_0_0
   + 0.1879738040094096 edge_7_6_0_0 + 0.83899987452225 edge_7_8_0_0
   - 0.0797192381466595 edge_7_9_0_0 - 0.1047727772002995 edge_7_11_0_0
   - 0.1773126574724389 edge_7_12_0_0 + 0.0576044972621774 edge_7_15_0_0
   + 0.0396102583959025 edge_8_1_0_0 + 0.41036806619774 edge_8_2_0_0
   + 1.1552942656431 edge_8_3_0_0 + 0.7690562919899999 edge_8_4_0_0
   + 1.244680736244 edge_8_5_0_0 + 2.691848029538 edge_8_6_0_0
   + 1.8554952015675 edge_8_7_0_0 + 3.3205641748055 edge_8_9_0_0
   + 0.1503362083139 edge_8_10_0_0 + 0.2627266346332182 edge_8_11_0_0
   + 0.6945103746392954 edge_8_12_0_0 + 0.4446765506728699 edge_8_13_0_0
   + 1.1550180375576 edge_8_14_0_0 + 2.124992165823 edge_8_15_0_0
   + 0.1532348471938996 edge_9_7_0_0 + 0.365173994696309 edge_9_10_0_0
   - 0.7122109713221698 edge_9_11_0_0 + 0.2327766892387598 edge_9_12_0_0
   + 0.3198962016052528 edge_9_13_0_0 + 0.2974688678588832 edge_9_14_0_0
   + 0.3575653361360683 edge_10_13_0_0 + 0.0402517956224677 edge_11_1_0_0
   - 0.5105864083427226 edge_11_2_0_0 + 0.240587987871196 edge_11_3_0_0
   + 0.3023732395163992 edge_11_4_0_0 - 0.2432046521911404 edge_11_6_0_0
   + 0.0594475574093598 edge_11_7_0_0 + 0.4638160842591889 edge_11_8_0_0
   + 0.5777907817136637 edge_11_9_0_0 + 0.0833076033326709 edge_11_12_0_0
   - 0.3722547619274324 edge_11_14_0_0 + 1.7158673218869 edge_11_15_0_0
   - 0.4991162733442817 edge_12_1_0_0 - 0.1175127562206099 edge_12_3_0_0
   - 0.221178519840004 edge_12_4_0_0 + 0.0476457683395084 edge_12_6_0_0
   - 0.0176274048526745 edge_12_7_0_0 + 0.1901660251905664 edge_12_8_0_0
   + 0.6123076546868563 edge_12_9_0_0 + 0.2614382117842229 edge_12_11_0_0
   - 0.2661291287811503 edge_13_6_0_0 + 0.00747949597404163 edge_13_9_0_0
   + 0.9106725913357925 edge_13_10_0_0 + 0.4229461927251026 edge_13_14_0_0
   + 0.6212857249477652 edge_13_15_0_0 - 0.3546295720292827 edge_14_1_0_0
   - 1.306852919905495 edge_14_2_0_0 - 0.0274561607337002 edge_14_3_0_0
   + 0.2651180367076567 edge_14_4_0_0 - 0.6037138356641681 edge_14_5_0_0
   + 0.00207517960854697 edge_14_6_0_0 - 0.8077851702960291 edge_14_7_0_0
   - 0.1246447450370687 edge_14_9_0_0 + 1.064666900105374 edge_14_10_0_0
   + 1.060446465664179 edge_14_13_0_0 + 2.150139069906812 edge_14_15_0_0
   - 0.0100601652671398 edge_15_10_0_0 - 0.878239340745162 edge_15_13_0_0
   - 0.1305348093793289 edge_15_14_0_0
Subject To
 one_parent_1: edge_0_1_0_0 + edge_3_1_0_0 + edge_4_1_0_0 + edge_6_1_0_0
   + edge_7_1_0_0 + edge_8_1_0_0 + edge_11_1_0_0 + edge_12_1_0_0
   + edge_14_1_0_0 = 1
 consume_one_flow_unit_1: flow_0_1_0_0 - flow_1_3_0_0 - flow_1_4_0_0
   - flow_1_7_0_0 - flow_1_8_0_0 + flow_3_1_0_0 + flow_4_1_0_0
   + flow_6_1_0_0 + flow_7_1_0_0 + flow_8_1_0_0 + flow_11_1_0_0
   + flow_12_1_0_0 + flow_14_1_0_0 = 1
 one_parent_2: edge_3_2_0_0 + edge_4_2_0_0 + edge_8_2_0_0 + edge_11_2_0_0
   + edge_14_2_0_0 = 1
 consume_one_flow_unit_2: - flow_2_3_0_0 - flow_2_4_0_0 - flow_2_5_0_0
   + flow_3_2_0_0 + flow_4_2_0_0 + flow_8_2_0_0 + flow_11_2_0_0
   + flow_14_2_0_0 = 1
 one_parent_3: edge_0_3_0_0 + edge_1_3_0_0 + edge_2_3_0_0 + edge_4_3_0_0
   + edge_6_3_0_0 + edge_7_3_0_0 + edge_8_3_0_0 + edge_11_3_0_0
   + edge_12_3_0_0 + edge_14_3_0_0 = 1
 consume_one_flow_unit_3: flow_0_3_0_0 + flow_1_3_0_0 + flow_2_3_0_0
   - flow_3_1_0_0 - flow_3_2_0_0 - flow_3_4_0_0 - flow_3_5_0_0
   - flow_3_6_0_0 - flow_3_7_0_0 - flow_3_8_0_0 - flow_3_9_0_0
   - flow_3_10_0_0 - flow_3_11_0_0 - flow_3_12_0_0 - flow_3_13_0_0
   - flow_3_14_0_0 - flow_3_15_0_0 + flow_4_3_0_0 + flow_6_3_0_0
   + flow_7_3_0_0 + flow_8_3_0_0 + flow_11_3_0_0 + flow_12_3_0_0
   + flow_14_3_0_0 = 1
 one_parent_4: edge_0_4_0_0 + edge_1_4_0_0 + edge_2_4_0_0 + edge_3_4_0_0
   + edge_6_4_0_0 + edge_7_4_0_0 + edge_8_4_0_0 + edge_11_4_0_0
   + edge_12_4_0_0 + edge_14_4_0_0 = 1
 consume_one_flow_unit_4: flow_0_4_0_0 + flow_1_4_0_0 + flow_2_4_0_0
   + flow_3_4_0_0 - flow_4_1_0_0 - flow_4_2_0_0 - flow_4_3_0_0
   - flow_4_7_0_0 - flow_4_8_0_0 - flow_4_11_0_0 - flow_4_12_0_0
   + flow_6_4_0_0 + flow_7_4_0_0 + flow_8_4_0_0 + flow_11_4_0_0
   + flow_12_4_0_0 + flow_14_4_0_0 = 1
 one_parent_5: edge_2_5_0_0 + edge_3_5_0_0 + edge_6_5_0_0 + edge_7_5_0_0
   + edge_8_5_0_0 + edge_14_5_0_0 = 1
 consume_one_flow_unit_5: flow_2_5_0_0 + flow_3_5_0_0 - flow_5_6_0_0
   - flow_5_7_0_0 - flow_5_8_0_0 + flow_6_5_0_0 + flow_7_5_0_0
   + flow_8_5_0_0 + flow_14_5_0_0 = 1
 one_parent_6: edge_0_6_0_0 + edge_3_6_0_0 + edge_5_6_0_0 + edge_7_6_0_0
   + edge_8_6_0_0 + edge_11_6_0_0 + edge_12_6_0_0 + edge_13_6_0_0
   + edge_14_6_0_0 = 1
 consume_one_flow_unit_6: flow_0_6_0_0 + flow_3_6_0_0 + flow_5_6_0_0
   - flow_6_1_0_0 - flow_6_3_0_0 - flow_6_4_0_0 - flow_6_5_0_0
   - flow_6_7_0_0 - flow_6_8_0_0 - flow_6_10_0_0 - flow_6_11_0_0
   - flow_6_12_0_0 - flow_6_14_0_0 - flow_6_15_0_0 + flow_7_6_0_0
   + flow_8_6_0_0 + flow_11_6_0_0 + flow_12_6_0_0 + flow_13_6_0_0
   + flow_14_6_0_0 = 1
 one_parent_7: edge_0_7_0_0 + edge_1_7_0_0 + edge_3_7_0_0 + edge_4_7_0_0
   + edge_5_7_0_0 + edge_6_7_0_0 + edge_8_7_0_0 + edge_9_7_0_0
   + edge_11_7_0_0 + edge_12_7_0_0 + edge_14_7_0_0 = 1
 consume_one_flow_unit_7: flow_0_7_0_0 + flow_1_7_0_0 + flow_3_7_0_0
   + flow_4_7_0_0 + flow_5_7_0_0 + flow_6_7_0_0 - flow_7_1_0_0
   - flow_7_3_0_0 - flow_7_4_0_0 - flow_7_5_0_0 - flow_7_6_0_0
   - flow_7_8_0_0 - flow_7_9_0_0 - flow_7_11_0_0 - flow_7_12_0_0
   - flow_7_15_0_0 + flow_8_7_0_0 + flow_9_7_0_0 + flow_11_7_0_0
   + flow_12_7_0_0 + flow_14_7_0_0 = 1
 one_parent_8: edge_0_8_0_0 + edge_1_8_0_0 + edge_3_8_0_0 + edge_4_8_0_0
   + edge_5_8_0_0 + edge_6_8_0_0 + edge_7_8_0_0 + edge_11_8_0_0
   + edge_12_8_0_0 = 1
 consume_one_flow_unit_8: flow_0_8_0_0 + flow_1_8_0_0 + flow_3_8_0_0
   + flow_4_8_0_0 + flow_5_8_0_0 + flow_6_8_0_0 + flow_7_8_0_0
   - flow_8_1_0_0 - flow_8_2_0_0 - flow_8_3_0_0 - flow_8_4_0_0
   - flow_8_5_0_0 - flow_8_6_0_0 - flow_8_7_0_0 - flow_8_9_0_0
   - flow_8_10_0_0 - flow_8_11_0_0 - flow_8_12_0_0 - flow_8_13_0_0
   - flow_8_14_0_0 - flow_8_15_0_0 + flow_11_8_0_0 + flow_12_8_0_0 = 1
 one_parent_9: edge_3_9_0_0 + edge_7_9_0_0 + edge_8_9_0_0 + edge_11_9_0_0
   + edge_12_9_0_0 + edge_13_9_0_0 + edge_14_9_0_0 = 1
 consume_one_flow_unit_9: flow_3_9_0_0 + flow_7_9_0_0 + flow_8_9_0_0
   - flow_9_7_0_0 - flow_9_10_0_0 - flow_9_11_0_0 - flow_9_12_0_0
   - flow_9_13_0_0 - flow_9_14_0_0 + flow_11_9_0_0 + flow_12_9_0_0
   + flow_13_9_0_0 + flow_14_9_0_0 = 1
 one_parent_10: edge_3_10_0_0 + edge_6_10_0_0 + edge_8_10_0_0
   + edge_9_10_0_0 + edge_13_10_0_0 + edge_14_10_0_0 + edge_15_10_0_0 = 1
 consume_one_flow_unit_10: flow_3_10_0_0 + flow_6_10_0_0 + flow_8_10_0_0
   + flow_9_10_0_0 - flow_10_13_0_0 + flow_13_10_0_0 + flow_14_10_0_0
   + flow_15_10_0_0 = 1
 one_parent_11: edge_0_11_0_0 + edge_3_11_0_0 + edge_4_11_0_0
   + edge_6_11_0_0 + edge_7_11_0_0 + edge_8_11_0_0 + edge_9_11_0_0
   + edge_12_11_0_0 = 1
 consume_one_flow_unit_11: flow_0_11_0_0 + flow_3_11_0_0 + flow_4_11_0_0
   + flow_6_11_0_0 + flow_7_11_0_0 + flow_8_11_0_0 + flow_9_11_0_0
   - flow_11_1_0_0 - flow_11_2_0_0 - flow_11_3_0_0 - flow_11_4_0_0
   - flow_11_6_0_0 - flow_11_7_0_0 - flow_11_8_0_0 - flow_11_9_0_0
   - flow_11_12_0_0 - flow_11_14_0_0 - flow_11_15_0_0 + flow_12_11_0_0 = 1
 one_parent_12: edge_0_12_0_0 + edge_3_12_0_0 + edge_4_12_0_0
   + edge_6_12_0_0 + edge_7_12_0_0 + edge_8_12_0_0 + edge_9_12_0_0
   + edge_11_12_0_0 = 1
 consume_one_flow_unit_12: flow_0_12_0_0 + flow_3_12_0_0 + flow_4_12_0_0
   + flow_6_12_0_0 + flow_7_12_0_0 + flow_8_12_0_0 + flow_9_12_0_0
   + flow_11_12_0_0 - flow_12_1_0_0 - flow_12_3_0_0 - flow_12_4_0_0
   - flow_12_6_0_0 - flow_12_7_0_0 - flow_12_8_0_0 - flow_12_9_0_0
   - flow_12_11_0_0 = 1
 one_parent_13: edge_3_13_0_0 + edge_8_13_0_0 + edge_9_13_0_0
   + edge_10_13_0_0 + edge_14_13_0_0 + edge_15_13_0_0 = 1
 consume_one_flow_unit_13: flow_3_13_0_0 + flow_8_13_0_0 + flow_9_13_0_0
   + flow_10_13_0_0 - flow_13_6_0_0 - flow_13_9_0_0 - flow_13_10_0_0
   - flow_13_14_0_0 - flow_13_15_0_0 + flow_14_13_0_0 + flow_15_13_0_0 = 1
 one_parent_14: edge_3_14_0_0 + edge_6_14_0_0 + edge_8_14_0_0
   + edge_9_14_0_0 + edge_11_14_0_0 + edge_13_14_0_0 + edge_15_14_0_0 = 1
 consume_one_flow_unit_14: flow_3_14_0_0 + flow_6_14_0_0 + flow_8_14_0_0
   + flow_9_14_0_0 + flow_11_14_0_0 + flow_13_14_0_0 - flow_14_1_0_0
   - flow_14_2_0_0 - flow_14_3_0_0 - flow_14_4_0_0 - flow_14_5_0_0
   - flow_14_6_0_0 - flow_14_7_0_0 - flow_14_9_0_0 - flow_14_10_0_0
   - flow_14_13_0_0 - flow_14_15_0_0 + flow_15_14_0_0 = 1
 one_parent_15: edge_3_15_0_0 + edge_6_15_0_0 + edge_7_15_0_0
   + edge_8_15_0_0 + edge_11_15_0_0 + edge_13_15_0_0 + edge_14_15_0_0 = 1
 consume_one_flow_unit_15: flow_3_15_0_0 + flow_6_15_0_0 + flow_7_15_0_0
   + flow_8_15_0_0 + flow_11_15_0_0 + flow_13_15_0_0 + flow_14_15_0_0
   - flow_15_10_0_0 - flow_15_13_0_0 - flow_15_14_0_0 = 1
 root_flow: flow_0_1_0_0 + flow_0_3_0_0 + flow_0_4_0_0 + flow_0_6_0_0
   + flow_0_7_0_0 + flow_0_8_0_0 + flow_0_11_0_0 + flow_0_12_0_0 = 15
 inactive_no_flow_0_1_0_0: flow_0_1_0_0 - 1000 edge_0_1_0_0 <= 0
 inactive_no_flow_0_3_0_0: flow_0_3_0_0 - 1000 edge_0_3_0_0 <= 0
 inactive_no_flow_0_4_0_0: flow_0_4_0_0 - 1000 edge_0_4_0_0 <= 0
 inactive_no_flow_0_6_0_0: flow_0_6_0_0 - 1000 edge_0_6_0_0 <= 0
 inactive_no_flow_0_7_0_0: flow_0_7_0_0 - 1000 edge_0_7_0_0 <= 0
 inactive_no_flow_0_8_0_0: flow_0_8_0_0 - 1000 edge_0_8_0_0 <= 0
 inactive_no_flow_0_11_0_0: flow_0_11_0_0 - 1000 edge_0_11_0_0 <= 0
 inactive_no_flow_0_12_0_0: flow_0_12_0_0 - 1000 edge_0_12_0_0 <= 0
 inactive_no_flow_1_3_0_0: flow_1_3_0_0 - 1000 edge_1_3_0_0 <= 0
 inactive_no_flow_1_4_0_0: flow_1_4_0_0 - 1000 edge_1_4_0_0 <= 0
 inactive_no_flow_1_7_0_0: flow_1_7_0_0 - 1000 edge_1_7_0_0 <= 0
 inactive_no_flow_1_8_0_0: flow_1_8_0_0 - 1000 edge_1_8_0_0 <= 0
 inactive_no_flow_2_3_0_0: flow_2_3_0_0 - 1000 edge_2_3_0_0 <= 0
 inactive_no_flow_2_4_0_0: flow_2_4_0_0 - 1000 edge_2_4_0_0 <= 0
 inactive_no_flow_2_5_0_0: flow_2_5_0_0 - 1000 edge_2_5_0_0 <= 0
 inactive_no_flow_3_1_0_0: flow_3_1_0_0 - 1000 edge_3_1_0_0 <= 0
 inactive_no_flow_3_2_0_0: flow_3_2_0_0 - 1000 edge_3_2_0_0 <= 0
 inactive_no_flow_3_4_0_0: flow_3_4_0_0 - 1000 edge_3_4_0_0 <= 0
 inactive_no_flow_3_5_0_0: flow_3_5_0_0 - 1000 edge_3_5_0_0 <= 0
 inactive_no_flow_3_6_0_0: flow_3_6_0_0 - 1000 edge_3_6_0_0 <= 0
 inactive_no_flow_3_7_0_0: flow_3_7_0_0 - 1000 edge_3_7_0_0 <= 0
 inactive_no_flow_3_8_0_0: flow_3_8_0_0 - 1000 edge_3_8_0_0 <= 0
 inactive_no_flow_3_9_0_0: flow_3_9_0_0 - 1000 edge_3_9_0_0 <= 0
 inactive_no_flow_3_10_0_0: flow_3_10_0_0 - 1000 edge_3_10_0_0 <= 0
 inactive_no_flow_3_11_0_0: flow_3_11_0_0 - 1000 edge_3_11_0_0 <= 0
 inactive_no_flow_3_12_0_0: flow_3_12_0_0 - 1000 edge_3_12_0_0 <= 0
 inactive_no_flow_3_13_0_0: flow_3_13_0_0 - 1000 edge_3_13_0_0 <= 0
 inactive_no_flow_3_14_0_0: flow_3_14_0_0 - 1000 edge_3_14_0_0 <= 0
 inactive_no_flow_3_15_0_0: flow_3_15_0_0 - 1000 edge_3_15_0_0 <= 0
 inactive_no_flow_4_1_0_0: flow_4_1_0_0 - 1000 edge_4_1_0_0 <= 0
 inactive_no_flow_4_2_0_0: flow_4_2_0_0 - 1000 edge_4_2_0_0 <= 0
 inactive_no_flow_4_3_0_0: flow_4_3_0_0 - 1000 edge_4_3_0_0 <= 0
 inactive_no_flow_4_7_0_0: flow_4_7_0_0 - 1000 edge_4_7_0_0 <= 0
 inactive_no_flow_4_8_0_0: flow_4_8_0_0 - 1000 edge_4_8_0_0 <= 0
 inactive_no_flow_4_11_0_0: flow_4_11_0_0 - 1000 edge_4_11_0_0 <= 0
 inactive_no_flow_4_12_0_0: flow_4_12_0_0 - 1000 edge_4_12_0_0 <= 0
 inactive_no_flow_5_6_0_0: flow_5_6_0_0 - 1000 edge_5_6_0_0 <= 0
 inactive_no_flow_5_7_0_0: flow_5_7_0_0 - 1000 edge_5_7_0_0 <= 0
 inactive_no_flow_5_8_0_0: flow_5_8_0_0 - 1000 edge_5_8_0_0 <= 0
 inactive_no_flow_6_1_0_0: flow_6_1_0_0 - 1000 edge_6_1_0_0 <= 0
 inactive_no_flow_6_3_0_0: flow_6_3_0_0 - 1000 edge_6_3_0_0 <= 0
 inactive_no_flow_6_4_0_0: flow_6_4_0_0 - 1000 edge_6_4_0_0 <= 0
 inactive_no_flow_6_5_0_0: flow_6_5_0_0 - 1000 edge_6_5_0_0 <= 0
 inactive_no_flow_6_7_0_0: flow_6_7_0_0 - 1000 edge_6_7_0_0 <= 0
 inactive_no_flow_6_8_0_0: flow_6_8_0_0 - 1000 edge_6_8_0_0 <= 0
 inactive_no_flow_6_10_0_0: flow_6_10_0_0 - 1000 edge_6_10_0_0 <= 0
 inactive_no_flow_6_11_0_0: flow_6_11_0_0 - 1000 edge_6_11_0_0 <= 0
 inactive_no_flow_6_12_0_0: flow_6_12_0_0 - 1000 edge_6_12_0_0 <= 0
 inactive_no_flow_6_14_0_0: flow_6_14_0_0 - 1000 edge_6_14_0_0 <= 0
 inactive_no_flow_6_15_0_0: flow_6_15_0_0 - 1000 edge_6_15_0_0 <= 0
 inactive_no_flow_7_1_0_0: flow_7_1_0_0 - 1000 edge_7_1_0_0 <= 0
 inactive_no_flow_7_3_0_0: flow_7_3_0_0 - 1000 edge_7_3_0_0 <= 0
 inactive_no_flow_7_4_0_0: flow_7_4_0_0 - 1000 edge_7_4_0_0 <= 0
 inactive_no_flow_7_5_0_0: flow_7_5_0_0 - 1000 edge_7_5_0_0 <= 0
 inactive_no_flow_7_6_0_0: flow_7_6_0_0 - 1000 edge_7_6_0_0 <= 0
 inactive_no_flow_7_8_0_0: flow_7_8_0_0 - 1000 edge_7_8_0_0 <= 0
 inactive_no_flow_7_9_0_0: flow_7_9_0_0 - 1000 edge_7_9_0_0 <= 0
 inactive_no_flow_7_11_0_0: flow_7_11_0_0 - 1000 edge_7_11_0_0 <= 0
 inactive_no_flow_7_12_0_0: flow_7_12_0_0 - 1000 edge_7_12_0_0 <= 0
 inactive_no_flow_7_15_0_0: flow_7_15_0_0 - 1000 edge_7_15_0_0 <= 0
 inactive_no_flow_8_1_0_0: flow_8_1_0_0 - 1000 edge_8_1_0_0 <= 0
 inactive_no_flow_8_2_0_0: flow_8_2_0_0 - 1000 edge_8_2_0_0 <= 0
 inactive_no_flow_8_3_0_0: flow_8_3_0_0 - 1000 edge_8_3_0_0 <= 0
 inactive_no_flow_8_4_0_0: flow_8_4_0_0 - 1000 edge_8_4_0_0 <= 0
 inactive_no_flow_8_5_0_0: flow_8_5_0_0 - 1000 edge_8_5_0_0 <= 0
 inactive_no_flow_8_6_0_0: flow_8_6_0_0 - 1000 edge_8_6_0_0 <= 0
 inactive_no_flow_8_7_0_0: flow_8_7_0_0 - 1000 edge_8_7_0_0 <= 0
 inactive_no_flow_8_9_0_0: flow_8_9_0_0 - 1000 edge_8_9_0_0 <= 0
 inactive_no_flow_8_10_0_0: flow_8_10_0_0 - 1000 edge_8_10_0_0 <= 0
 inactive_no_flow_8_11_0_0: flow_8_11_0_0 - 1000 edge_8_11_0_0 <= 0
 inactive_no_flow_8_12_0_0: flow_8_12_0_0 - 1000 edge_8_12_0_0 <= 0
 inactive_no_flow_8_13_0_0: flow_8_13_0_0 - 1000 edge_8_13_0_0 <= 0
 inactive_no_flow_8_14_0_0: flow_8_14_0_0 - 1000 edge_8_14_0_0 <= 0
 inactive_no_flow_8_15_0_0: flow_8_15_0_0 - 1000 edge_8_15_0_0 <= 0
 inactive_no_flow_9_7_0_0: flow_9_7_0_0 - 1000 edge_9_7_0_0 <= 0
 inactive_no_flow_9_10_0_0: flow_9_10_0_0 - 1000 edge_9_10_0_0 <= 0
 inactive_no_flow_9_11_0_0: flow_9_11_0_0 - 1000 edge_9_11_0_0 <= 0
 inactive_no_flow_9_12_0_0: flow_9_12_0_0 - 1000 edge_9_12_0_0 <= 0
 inactive_no_flow_9_13_0_0: flow_9_13_0_0 - 1000 edge_9_13_0_0 <= 0
 inactive_no_flow_9_14_0_0: flow_9_14_0_0 - 1000 edge_9_14_0_0 <= 0
 inactive_no_flow_10_13_0_0: flow_10_13_0_0 - 1000 edge_10_13_0_0 <= 0
 inactive_no_flow_11_1_0_0: flow_11_1_0_0 - 1000 edge_11_1_0_0 <= 0
 inactive_no_flow_11_2_0_0: flow_11_2_0_0 - 1000 edge_11_2_0_0 <= 0
 inactive_no_flow_11_3_0_0: flow_11_3_0_0 - 1000 edge_11_3_0_0 <= 0
 inactive_no_flow_11_4_0_0: flow_11_4_0_0 - 1000 edge_11_4_0_0 <= 0
 inactive_no_flow_11_6_0_0: flow_11_6_0_0 - 1000 edge_11_6_0_0 <= 0
 inactive_no_flow_11_7_0_0: flow_11_7_0_0 - 1000 edge_11_7_0_0 <= 0
 inactive_no_flow_11_8_0_0: flow_11_8_0_0 - 1000 edge_11_8_0_0 <= 0
 inactive_no_flow_11_9_0_0: flow_11_9_0_0 - 1000 edge_11_9_0_0 <= 0
 inactive_no_flow_11_12_0_0: flow_11_12_0_0 - 1000 edge_11_12_0_0 <= 0
 inactive_no_flow_11_14_0_0: flow_11_14_0_0 - 1000 edge_11_14_0_0 <= 0
 inactive_no_flow_11_15_0_0: flow_11_15_0_0 - 1000 edge_11_15_0_0 <= 0
 inactive_no_flow_12_1_0_0: flow_12_1_0_0 - 1000 edge_12_1_0_0 <= 0
 inactive_no_flow_12_3_0_0: flow_12_3_0_0 - 1000 edge_12_3_0_0 <= 0
 inactive_no_flow_12_4_0_0: flow_12_4_0_0 - 1000 edge_12_4_0_0 <= 0
 inactive_no_flow_12_6_0_0: flow_12_6_0_0 - 1000 edge_12_6_0_0 <= 0
 inactive_no_flow_12_7_0_0: flow_12_7_0_0 - 1000 edge_12_7_0_0 <= 0
 inactive_no_flow_12_8_0_0: flow_12_8_0_0 - 1000 edge_12_8_0_0 <= 0
 inactive_no_flow_12_9_0_0: flow_12_9_0_0 - 1000 edge_12_9_0_0 <= 0
 inactive_no_flow_12_11_0_0: flow_12_11_0_0 - 1000 edge_12_11_0_0 <= 0
 inactive_no_flow_13_6_0_0: flow_13_6_0_0 - 1000 edge_13_6_0_0 <= 0
 inactive_no_flow_13_9_0_0: flow_13_9_0_0 - 1000 edge_13_9_0_0 <= 0
 inactive_no_flow_13_10_0_0: flow_13_10_0_0 - 1000 edge_13_10_0_0 <= 0
 inactive_no_flow_13_14_0_0: flow_13_14_0_0 - 1000 edge_13_14_0_0 <= 0
 inactive_no_flow_13_15_0_0: flow_13_15_0_0 - 1000 edge_13_15_0_0 <= 0
 inactive_no_flow_14_1_0_0: flow_14_1_0_0 - 1000 edge_14_1_0_0 <= 0
 inactive_no_flow_14_2_0_0: flow_14_2_0_0 - 1000 edge_14_2_0_0 <= 0
 inactive_no_flow_14_3_0_0: flow_14_3_0_0 - 1000 edge_14_3_0_0 <= 0
 inactive_no_flow_14_4_0_0: flow_14_4_0_0 - 1000 edge_14_4_0_0 <= 0
 inactive_no_flow_14_5_0_0: flow_14_5_0_0 - 1000 edge_14_5_0_0 <= 0
 inactive_no_flow_14_6_0_0: flow_14_6_0_0 - 1000 edge_14_6_0_0 <= 0
 inactive_no_flow_14_7_0_0: flow_14_7_0_0 - 1000 edge_14_7_0_0 <= 0
 inactive_no_flow_14_9_0_0: flow_14_9_0_0 - 1000 edge_14_9_0_0 <= 0
 inactive_no_flow_14_10_0_0: flow_14_10_0_0 - 1000 edge_14_10_0_0 <= 0
 inactive_no_flow_14_13_0_0: flow_14_13_0_0 - 1000 edge_14_13_0_0 <= 0
 inactive_no_flow_14_15_0_0: flow_14_15_0_0 - 1000 edge_14_15_0_0 <= 0
 inactive_no_flow_15_10_0_0: flow_15_10_0_0 - 1000 edge_15_10_0_0 <= 0
 inactive_no_flow_15_13_0_0: flow_15_13_0_0 - 1000 edge_15_13_0_0 <= 0
 inactive_no_flow_15_14_0_0: flow_15_14_0_0 - 1000 edge_15_14_0_0 <= 0
Bounds
Binaries
 edge_0_1_0_0 edge_0_3_0_0 edge_0_4_0_0 edge_0_6_0_0 edge_0_7_0_0
 edge_0_8_0_0 edge_0_11_0_0 edge_0_12_0_0 edge_1_3_0_0 edge_1_4_0_0
 edge_1_7_0_0 edge_1_8_0_0 edge_2_3_0_0 edge_2_4_0_0 edge_2_5_0_0
 edge_3_1_0_0 edge_3_2_0_0 edge_3_4_0_0 edge_3_5_0_0 edge_3_6_0_0
 edge_3_7_0_0 edge_3_8_0_0 edge_3_9_0_0 edge_3_10_0_0 edge_3_11_0_0
 edge_3_12_0_0 edge_3_13_0_0 edge_3_14_0_0 edge_3_15_0_0 edge_4_1_0_0
 edge_4_2_0_0 edge_4_3_0_0 edge_4_7_0_0 edge_4_8_0_0 edge_4_11_0_0
 edge_4_12_0_0 edge_5_6_0_0 edge_5_7_0_0 edge_5_8_0_0 edge_6_1_0_0
 edge_6_3_0_0 edge_6_4_0_0 edge_6_5_0_0 edge_6_7_0_0 edge_6_8_0_0
 edge_6_10_0_0 edge_6_11_0_0 edge_6_12_0_0 edge_6_14_0_0 edge_6_15_0_0
 edge_7_1_0_0 edge_7_3_0_0 edge_7_4_0_0 edge_7_5_0_0 edge_7_6_0_0
 edge_7_8_0_0 edge_7_9_0_0 edge_7_11_0_0 edge_7_12_0_0 edge_7_15_0_0
 edge_8_1_0_0 edge_8_2_0_0 edge_8_3_0_0 edge_8_4_0_0 edge_8_5_0_0
 edge_8_6_0_0 edge_8_7_0_0 edge_8_9_0_0 edge_8_10_0_0 edge_8_11_0_0
 edge_8_12_0_0 edge_8_13_0_0 edge_8_14_0_0 edge_8_15_0_0 edge_9_7_0_0
 edge_9_10_0_0 edge_9_11_0_0 edge_9_12_0_0 edge_9_13_0_0 edge_9_14_0_0
 edge_10_13_0_0 edge_11_1_0_0 edge_11_2_0_0 edge_11_3_0_0 edge_11_4_0_0
 edge_11_6_0_0 edge_11_7_0_0 edge_11_8_0_0 edge_11_9_0_0 edge_11_12_0_0
 edge_11_14_0_0 edge_11_15_0_0 edge_12_1_0_0 edge_12_3_0_0 edge_12_4_0_0
 edge_12_6_0_0 edge_12_7_0_0 edge_12_8_0_0 edge_12_9_0_0 edge_12_11_0_0
 edge_13_6_0_0 edge_13_9_0_0 edge_13_10_0_0 edge_13_14_0_0 edge_13_15_0_0
 edge_14_1_0_0 edge_14_2_0_0 edge_14_3_0_0 edge_14_4_0_0 edge_14_5_0_0
 edge_14_6_0_0 edge_14_7_0_0 edge_14_9_0_0 edge_14_10_0_0 edge_14_13_0_0
 edge_14_15_0_0 edge_15_10_0_0 edge_15_13_0_0 edge_15_14_0_0
End
